c FILE: v200_d20.dat

p edge 200 3980
e 1 2
e 1 4
e 1 5
e 1 14
e 1 16
e 1 17
e 1 26
e 1 27
e 1 35
e 1 45
e 1 51
e 1 55
e 1 60
e 1 68
e 1 117
e 1 139
e 1 141
e 1 193
e 2 3
e 2 5
e 2 11
e 2 12
e 2 14
e 2 16
e 2 23
e 2 34
e 2 37
e 2 41
e 2 45
e 2 63
e 2 73
e 2 76
e 2 77
e 2 80
e 2 81
e 2 86
e 2 89
e 2 92
e 2 95
e 2 101
e 2 102
e 2 108
e 2 112
e 2 119
e 2 125
e 2 127
e 2 131
e 2 133
e 2 134
e 2 139
e 2 147
e 2 148
e 2 150
e 2 157
e 2 163
e 2 173
e 2 175
e 2 178
e 2 182
e 2 186
e 3 4
e 3 9
e 3 13
e 3 15
e 3 21
e 3 22
e 3 31
e 3 40
e 3 41
e 3 42
e 3 47
e 3 48
e 3 54
e 3 57
e 3 67
e 3 75
e 3 76
e 3 82
e 3 84
e 3 85
e 3 89
e 3 94
e 3 95
e 3 112
e 3 118
e 3 125
e 3 128
e 3 133
e 3 136
e 3 143
e 3 145
e 3 153
e 3 159
e 3 161
e 3 163
e 3 176
e 3 182
e 3 191
e 4 5
e 4 12
e 4 24
e 4 25
e 4 26
e 4 35
e 4 41
e 4 46
e 4 47
e 4 53
e 4 57
e 4 60
e 4 61
e 4 62
e 4 71
e 4 76
e 4 94
e 4 95
e 4 96
e 4 99
e 4 108
e 4 130
e 4 138
e 4 140
e 4 144
e 4 150
e 4 151
e 4 152
e 4 162
e 4 163
e 4 178
e 4 182
e 4 196
e 4 199
e 5 6
e 5 9
e 5 11
e 5 15
e 5 18
e 5 20
e 5 26
e 5 27
e 5 37
e 5 43
e 5 45
e 5 46
e 5 50
e 5 53
e 5 59
e 5 63
e 5 65
e 5 68
e 5 70
e 5 78
e 5 85
e 5 88
e 5 96
e 5 97
e 5 105
e 5 113
e 5 114
e 5 115
e 5 116
e 5 120
e 5 122
e 5 130
e 5 135
e 5 141
e 5 145
e 5 146
e 5 151
e 5 152
e 5 163
e 5 165
e 5 174
e 5 179
e 5 181
e 5 183
e 5 184
e 5 193
e 5 194
e 6 7
e 6 21
e 6 24
e 6 28
e 6 33
e 6 34
e 6 48
e 6 49
e 6 62
e 6 67
e 6 75
e 6 78
e 6 80
e 6 83
e 6 84
e 6 88
e 6 99
e 6 102
e 6 107
e 6 110
e 6 111
e 6 120
e 6 139
e 6 149
e 6 155
e 6 166
e 6 169
e 6 184
e 6 186
e 6 191
e 6 195
e 6 199
e 7 8
e 7 22
e 7 24
e 7 27
e 7 30
e 7 31
e 7 45
e 7 54
e 7 57
e 7 58
e 7 75
e 7 78
e 7 81
e 7 87
e 7 91
e 7 98
e 7 108
e 7 113
e 7 119
e 7 122
e 7 123
e 7 125
e 7 138
e 7 139
e 7 145
e 7 146
e 7 151
e 7 153
e 7 160
e 7 170
e 7 171
e 7 180
e 7 184
e 7 192
e 8 9
e 8 10
e 8 14
e 8 18
e 8 20
e 8 23
e 8 31
e 8 33
e 8 34
e 8 39
e 8 40
e 8 53
e 8 70
e 8 79
e 8 89
e 8 92
e 8 122
e 8 127
e 8 131
e 8 139
e 8 156
e 8 160
e 8 161
e 8 164
e 8 165
e 8 166
e 8 191
e 8 193
e 8 199
e 9 10
e 9 11
e 9 15
e 9 26
e 9 33
e 9 34
e 9 36
e 9 42
e 9 43
e 9 46
e 9 48
e 9 50
e 9 53
e 9 59
e 9 61
e 9 63
e 9 68
e 9 72
e 9 80
e 9 83
e 9 88
e 9 89
e 9 104
e 9 110
e 9 112
e 9 116
e 9 123
e 9 131
e 9 140
e 9 153
e 9 163
e 9 164
e 9 168
e 9 171
e 9 182
e 9 188
e 9 193
e 10 11
e 10 31
e 10 35
e 10 38
e 10 39
e 10 44
e 10 46
e 10 51
e 10 52
e 10 55
e 10 57
e 10 59
e 10 61
e 10 64
e 10 70
e 10 71
e 10 75
e 10 77
e 10 78
e 10 92
e 10 96
e 10 104
e 10 108
e 10 110
e 10 112
e 10 113
e 10 114
e 10 116
e 10 123
e 10 131
e 10 137
e 10 143
e 10 144
e 10 150
e 10 152
e 10 158
e 10 162
e 10 166
e 10 169
e 10 170
e 10 172
e 10 176
e 10 178
e 10 191
e 10 195
e 10 197
e 10 198
e 11 12
e 11 13
e 11 27
e 11 36
e 11 37
e 11 39
e 11 40
e 11 45
e 11 63
e 11 66
e 11 90
e 11 106
e 11 110
e 11 140
e 11 143
e 11 148
e 11 152
e 11 154
e 11 160
e 11 161
e 11 169
e 11 175
e 11 176
e 11 177
e 11 182
e 11 185
e 11 189
e 11 190
e 11 191
e 11 197
e 12 13
e 12 16
e 12 19
e 12 20
e 12 26
e 12 32
e 12 36
e 12 41
e 12 56
e 12 59
e 12 73
e 12 76
e 12 82
e 12 84
e 12 87
e 12 88
e 12 105
e 12 107
e 12 109
e 12 123
e 12 126
e 12 128
e 12 139
e 12 143
e 12 147
e 12 150
e 12 151
e 12 155
e 12 156
e 12 164
e 12 167
e 12 186
e 13 14
e 13 17
e 13 21
e 13 22
e 13 26
e 13 39
e 13 40
e 13 50
e 13 52
e 13 54
e 13 61
e 13 68
e 13 70
e 13 98
e 13 104
e 13 105
e 13 109
e 13 119
e 13 120
e 13 127
e 13 134
e 13 136
e 13 138
e 13 140
e 13 142
e 13 147
e 13 160
e 13 173
e 13 184
e 13 200
e 14 15
e 14 17
e 14 22
e 14 25
e 14 28
e 14 31
e 14 33
e 14 37
e 14 40
e 14 41
e 14 45
e 14 49
e 14 55
e 14 65
e 14 69
e 14 72
e 14 74
e 14 75
e 14 80
e 14 83
e 14 84
e 14 89
e 14 92
e 14 94
e 14 99
e 14 105
e 14 109
e 14 111
e 14 112
e 14 115
e 14 123
e 14 124
e 14 127
e 14 133
e 14 141
e 14 142
e 14 145
e 14 154
e 14 165
e 14 174
e 14 176
e 14 177
e 14 183
e 14 188
e 14 198
e 15 16
e 15 20
e 15 37
e 15 39
e 15 46
e 15 49
e 15 50
e 15 54
e 15 70
e 15 71
e 15 76
e 15 86
e 15 93
e 15 104
e 15 105
e 15 115
e 15 124
e 15 148
e 15 154
e 15 165
e 15 166
e 15 175
e 15 177
e 15 178
e 15 185
e 16 17
e 16 18
e 16 22
e 16 23
e 16 30
e 16 36
e 16 39
e 16 55
e 16 58
e 16 60
e 16 64
e 16 65
e 16 84
e 16 89
e 16 90
e 16 92
e 16 96
e 16 101
e 16 115
e 16 116
e 16 118
e 16 124
e 16 128
e 16 130
e 16 140
e 16 142
e 16 145
e 16 156
e 16 157
e 16 160
e 16 161
e 16 165
e 16 169
e 16 170
e 16 173
e 16 175
e 16 177
e 16 181
e 16 184
e 16 191
e 16 195
e 16 196
e 16 197
e 16 198
e 16 200
e 17 18
e 17 24
e 17 33
e 17 35
e 17 37
e 17 41
e 17 45
e 17 47
e 17 50
e 17 53
e 17 54
e 17 58
e 17 62
e 17 64
e 17 65
e 17 67
e 17 71
e 17 76
e 17 83
e 17 93
e 17 107
e 17 108
e 17 109
e 17 113
e 17 117
e 17 131
e 17 132
e 17 144
e 17 145
e 17 149
e 17 176
e 17 182
e 17 184
e 17 189
e 17 190
e 17 195
e 17 198
e 18 19
e 18 22
e 18 26
e 18 27
e 18 29
e 18 31
e 18 37
e 18 45
e 18 48
e 18 49
e 18 50
e 18 58
e 18 60
e 18 72
e 18 76
e 18 84
e 18 86
e 18 90
e 18 106
e 18 110
e 18 113
e 18 116
e 18 118
e 18 125
e 18 126
e 18 128
e 18 132
e 18 138
e 18 146
e 18 148
e 18 151
e 18 160
e 18 166
e 18 167
e 18 169
e 18 172
e 18 174
e 18 181
e 18 182
e 18 183
e 18 187
e 18 188
e 18 197
e 19 20
e 19 24
e 19 27
e 19 30
e 19 44
e 19 64
e 19 77
e 19 78
e 19 82
e 19 83
e 19 91
e 19 94
e 19 103
e 19 109
e 19 119
e 19 126
e 19 145
e 19 149
e 19 151
e 19 152
e 19 153
e 19 154
e 19 155
e 19 157
e 19 161
e 19 162
e 19 170
e 19 174
e 19 179
e 19 183
e 19 193
e 19 197
e 19 200
e 20 21
e 20 26
e 20 32
e 20 34
e 20 36
e 20 56
e 20 64
e 20 71
e 20 77
e 20 88
e 20 89
e 20 90
e 20 93
e 20 94
e 20 95
e 20 105
e 20 125
e 20 127
e 20 129
e 20 131
e 20 133
e 20 143
e 20 147
e 20 148
e 20 149
e 20 150
e 20 158
e 20 170
e 20 171
e 20 189
e 20 193
e 20 197
e 21 22
e 21 24
e 21 32
e 21 36
e 21 39
e 21 40
e 21 47
e 21 50
e 21 52
e 21 55
e 21 67
e 21 69
e 21 73
e 21 78
e 21 80
e 21 88
e 21 89
e 21 91
e 21 93
e 21 94
e 21 100
e 21 102
e 21 106
e 21 110
e 21 113
e 21 115
e 21 117
e 21 119
e 21 120
e 21 126
e 21 127
e 21 131
e 21 132
e 21 134
e 21 135
e 21 136
e 21 137
e 21 138
e 21 139
e 21 144
e 21 148
e 21 149
e 21 151
e 21 154
e 21 159
e 21 164
e 21 167
e 21 169
e 21 170
e 21 174
e 21 175
e 21 177
e 21 183
e 21 184
e 21 186
e 22 23
e 22 27
e 22 29
e 22 51
e 22 52
e 22 56
e 22 62
e 22 65
e 22 66
e 22 69
e 22 92
e 22 93
e 22 96
e 22 101
e 22 110
e 22 111
e 22 113
e 22 116
e 22 118
e 22 120
e 22 122
e 22 134
e 22 136
e 22 145
e 22 146
e 22 156
e 22 160
e 22 161
e 22 165
e 22 166
e 22 174
e 22 177
e 22 190
e 22 193
e 22 199
e 23 24
e 23 36
e 23 40
e 23 46
e 23 47
e 23 52
e 23 54
e 23 57
e 23 59
e 23 64
e 23 65
e 23 69
e 23 78
e 23 83
e 23 84
e 23 92
e 23 95
e 23 105
e 23 106
e 23 108
e 23 113
e 23 117
e 23 125
e 23 133
e 23 138
e 23 139
e 23 142
e 23 144
e 23 146
e 23 153
e 23 165
e 23 175
e 23 182
e 23 187
e 23 191
e 23 197
e 23 200
e 24 25
e 24 37
e 24 42
e 24 44
e 24 45
e 24 48
e 24 53
e 24 59
e 24 64
e 24 65
e 24 67
e 24 69
e 24 76
e 24 79
e 24 82
e 24 89
e 24 93
e 24 97
e 24 102
e 24 104
e 24 106
e 24 111
e 24 113
e 24 115
e 24 116
e 24 118
e 24 122
e 24 131
e 24 136
e 24 138
e 24 157
e 24 162
e 24 170
e 24 171
e 24 172
e 24 176
e 24 177
e 24 183
e 24 184
e 24 186
e 24 193
e 25 26
e 25 32
e 25 33
e 25 34
e 25 35
e 25 40
e 25 42
e 25 43
e 25 47
e 25 49
e 25 52
e 25 57
e 25 66
e 25 74
e 25 83
e 25 84
e 25 91
e 25 94
e 25 97
e 25 99
e 25 100
e 25 101
e 25 105
e 25 109
e 25 115
e 25 125
e 25 126
e 25 133
e 25 144
e 25 147
e 25 149
e 25 155
e 25 158
e 25 161
e 25 163
e 25 182
e 25 184
e 25 186
e 25 187
e 25 190
e 25 192
e 25 193
e 25 195
e 26 27
e 26 28
e 26 31
e 26 34
e 26 40
e 26 44
e 26 45
e 26 53
e 26 56
e 26 57
e 26 65
e 26 69
e 26 72
e 26 73
e 26 85
e 26 86
e 26 87
e 26 90
e 26 92
e 26 96
e 26 99
e 26 111
e 26 114
e 26 118
e 26 122
e 26 130
e 26 132
e 26 135
e 26 148
e 26 150
e 26 152
e 26 154
e 26 155
e 26 158
e 26 167
e 26 179
e 26 181
e 26 184
e 26 190
e 26 191
e 26 193
e 26 196
e 26 200
e 27 28
e 27 33
e 27 37
e 27 40
e 27 41
e 27 43
e 27 45
e 27 47
e 27 49
e 27 54
e 27 64
e 27 67
e 27 69
e 27 71
e 27 76
e 27 82
e 27 89
e 27 90
e 27 97
e 27 100
e 27 101
e 27 107
e 27 108
e 27 110
e 27 111
e 27 113
e 27 115
e 27 120
e 27 129
e 27 135
e 27 138
e 27 139
e 27 145
e 27 150
e 27 152
e 27 158
e 27 159
e 27 176
e 27 177
e 27 178
e 27 182
e 27 184
e 27 187
e 27 195
e 27 196
e 27 200
e 28 29
e 28 35
e 28 42
e 28 48
e 28 54
e 28 61
e 28 67
e 28 68
e 28 69
e 28 71
e 28 83
e 28 91
e 28 96
e 28 97
e 28 98
e 28 103
e 28 109
e 28 119
e 28 125
e 28 130
e 28 136
e 28 141
e 28 142
e 28 145
e 28 151
e 28 155
e 28 160
e 28 161
e 28 166
e 28 171
e 28 179
e 28 195
e 29 30
e 29 32
e 29 45
e 29 51
e 29 52
e 29 53
e 29 65
e 29 66
e 29 69
e 29 72
e 29 74
e 29 75
e 29 78
e 29 80
e 29 85
e 29 90
e 29 94
e 29 104
e 29 106
e 29 108
e 29 119
e 29 122
e 29 129
e 29 131
e 29 132
e 29 134
e 29 135
e 29 149
e 29 154
e 29 156
e 29 158
e 29 168
e 29 173
e 29 175
e 30 31
e 30 42
e 30 45
e 30 50
e 30 81
e 30 82
e 30 83
e 30 84
e 30 92
e 30 102
e 30 107
e 30 116
e 30 123
e 30 125
e 30 126
e 30 127
e 30 132
e 30 136
e 30 138
e 30 140
e 30 147
e 30 151
e 30 160
e 30 161
e 30 166
e 30 168
e 30 179
e 30 180
e 30 182
e 30 185
e 30 188
e 30 193
e 30 200
e 31 32
e 31 39
e 31 49
e 31 52
e 31 60
e 31 62
e 31 74
e 31 85
e 31 91
e 31 93
e 31 99
e 31 103
e 31 110
e 31 114
e 31 118
e 31 120
e 31 125
e 31 126
e 31 128
e 31 137
e 31 144
e 31 147
e 31 148
e 31 161
e 31 175
e 31 178
e 31 181
e 31 182
e 31 189
e 31 194
e 31 197
e 32 33
e 32 38
e 32 43
e 32 48
e 32 60
e 32 63
e 32 64
e 32 66
e 32 67
e 32 75
e 32 77
e 32 78
e 32 79
e 32 81
e 32 84
e 32 87
e 32 95
e 32 109
e 32 112
e 32 114
e 32 117
e 32 119
e 32 122
e 32 123
e 32 126
e 32 143
e 32 144
e 32 147
e 32 161
e 32 167
e 32 179
e 32 180
e 32 182
e 32 184
e 32 185
e 32 191
e 33 34
e 33 39
e 33 41
e 33 42
e 33 47
e 33 49
e 33 52
e 33 60
e 33 77
e 33 87
e 33 101
e 33 113
e 33 114
e 33 118
e 33 120
e 33 121
e 33 124
e 33 130
e 33 137
e 33 142
e 33 144
e 33 147
e 33 155
e 33 163
e 33 165
e 33 168
e 33 176
e 33 181
e 33 188
e 33 198
e 34 35
e 34 37
e 34 40
e 34 54
e 34 61
e 34 63
e 34 71
e 34 80
e 34 82
e 34 83
e 34 84
e 34 93
e 34 108
e 34 132
e 34 133
e 34 142
e 34 150
e 34 152
e 34 157
e 34 166
e 34 167
e 34 170
e 34 173
e 34 175
e 34 179
e 34 185
e 34 194
e 34 198
e 35 36
e 35 39
e 35 43
e 35 54
e 35 57
e 35 58
e 35 59
e 35 60
e 35 67
e 35 69
e 35 75
e 35 81
e 35 85
e 35 86
e 35 91
e 35 95
e 35 97
e 35 99
e 35 104
e 35 110
e 35 111
e 35 120
e 35 123
e 35 124
e 35 127
e 35 131
e 35 134
e 35 135
e 35 136
e 35 138
e 35 144
e 35 145
e 35 154
e 35 158
e 35 161
e 35 181
e 35 190
e 35 194
e 36 37
e 36 43
e 36 48
e 36 49
e 36 59
e 36 61
e 36 64
e 36 70
e 36 76
e 36 77
e 36 79
e 36 81
e 36 97
e 36 99
e 36 100
e 36 101
e 36 105
e 36 106
e 36 112
e 36 114
e 36 116
e 36 118
e 36 122
e 36 125
e 36 134
e 36 136
e 36 152
e 36 165
e 36 175
e 36 179
e 36 181
e 36 182
e 36 186
e 37 38
e 37 44
e 37 55
e 37 56
e 37 57
e 37 70
e 37 84
e 37 88
e 37 100
e 37 104
e 37 106
e 37 108
e 37 109
e 37 115
e 37 121
e 37 122
e 37 124
e 37 129
e 37 132
e 37 135
e 37 142
e 37 144
e 37 151
e 37 162
e 37 171
e 37 188
e 37 189
e 37 192
e 37 197
e 37 199
e 38 39
e 38 44
e 38 62
e 38 67
e 38 73
e 38 74
e 38 95
e 38 101
e 38 103
e 38 108
e 38 114
e 38 116
e 38 117
e 38 125
e 38 126
e 38 132
e 38 144
e 38 145
e 38 153
e 38 154
e 38 160
e 38 167
e 38 178
e 38 182
e 38 186
e 38 197
e 39 40
e 39 44
e 39 53
e 39 56
e 39 67
e 39 78
e 39 79
e 39 83
e 39 86
e 39 93
e 39 95
e 39 117
e 39 124
e 39 125
e 39 141
e 39 150
e 39 153
e 39 157
e 39 163
e 39 175
e 39 176
e 39 181
e 39 192
e 39 196
e 39 198
e 40 41
e 40 52
e 40 60
e 40 61
e 40 62
e 40 63
e 40 71
e 40 86
e 40 93
e 40 97
e 40 105
e 40 107
e 40 109
e 40 112
e 40 134
e 40 137
e 40 141
e 40 142
e 40 144
e 40 146
e 40 151
e 40 153
e 40 156
e 40 165
e 40 176
e 40 179
e 40 186
e 40 190
e 40 192
e 41 42
e 41 46
e 41 49
e 41 51
e 41 56
e 41 67
e 41 70
e 41 74
e 41 77
e 41 90
e 41 92
e 41 94
e 41 96
e 41 102
e 41 103
e 41 109
e 41 113
e 41 121
e 41 123
e 41 130
e 41 139
e 41 140
e 41 143
e 41 150
e 41 155
e 41 161
e 41 162
e 41 166
e 41 167
e 41 168
e 41 170
e 41 171
e 41 181
e 41 190
e 41 193
e 42 43
e 42 47
e 42 56
e 42 62
e 42 66
e 42 68
e 42 70
e 42 75
e 42 94
e 42 96
e 42 103
e 42 106
e 42 107
e 42 119
e 42 122
e 42 127
e 42 132
e 42 138
e 42 145
e 42 147
e 42 148
e 42 166
e 42 178
e 42 179
e 42 183
e 42 186
e 42 188
e 42 191
e 42 194
e 42 195
e 43 44
e 43 45
e 43 49
e 43 51
e 43 54
e 43 61
e 43 63
e 43 65
e 43 66
e 43 69
e 43 78
e 43 84
e 43 92
e 43 98
e 43 102
e 43 103
e 43 108
e 43 109
e 43 113
e 43 122
e 43 127
e 43 134
e 43 135
e 43 147
e 43 152
e 43 155
e 43 156
e 43 160
e 43 168
e 43 171
e 43 172
e 43 173
e 43 174
e 43 177
e 43 179
e 43 183
e 43 185
e 44 45
e 44 49
e 44 59
e 44 60
e 44 61
e 44 62
e 44 68
e 44 84
e 44 93
e 44 96
e 44 102
e 44 103
e 44 113
e 44 116
e 44 117
e 44 124
e 44 127
e 44 131
e 44 133
e 44 135
e 44 142
e 44 152
e 44 164
e 44 169
e 44 172
e 44 174
e 44 178
e 44 189
e 44 199
e 45 46
e 45 49
e 45 66
e 45 69
e 45 71
e 45 76
e 45 78
e 45 87
e 45 96
e 45 99
e 45 100
e 45 101
e 45 102
e 45 105
e 45 106
e 45 108
e 45 113
e 45 128
e 45 129
e 45 137
e 45 138
e 45 156
e 45 158
e 45 159
e 45 165
e 45 175
e 45 181
e 45 187
e 45 193
e 45 197
e 46 47
e 46 53
e 46 57
e 46 64
e 46 65
e 46 67
e 46 68
e 46 70
e 46 73
e 46 80
e 46 81
e 46 84
e 46 88
e 46 97
e 46 98
e 46 102
e 46 104
e 46 112
e 46 115
e 46 130
e 46 137
e 46 148
e 46 150
e 46 158
e 46 159
e 46 175
e 46 185
e 46 187
e 46 189
e 46 191
e 46 197
e 46 198
e 47 48
e 47 52
e 47 53
e 47 54
e 47 55
e 47 59
e 47 68
e 47 70
e 47 78
e 47 80
e 47 88
e 47 94
e 47 100
e 47 104
e 47 111
e 47 128
e 47 129
e 47 141
e 47 147
e 47 150
e 47 151
e 47 158
e 47 159
e 47 163
e 47 167
e 47 171
e 47 174
e 47 176
e 47 182
e 47 183
e 47 185
e 47 191
e 47 194
e 47 200
e 48 49
e 48 60
e 48 62
e 48 68
e 48 70
e 48 79
e 48 80
e 48 84
e 48 85
e 48 98
e 48 99
e 48 100
e 48 103
e 48 113
e 48 114
e 48 118
e 48 123
e 48 124
e 48 129
e 48 130
e 48 133
e 48 137
e 48 143
e 48 150
e 48 156
e 48 162
e 48 164
e 48 168
e 48 179
e 48 181
e 49 50
e 49 62
e 49 72
e 49 75
e 49 86
e 49 90
e 49 101
e 49 102
e 49 104
e 49 112
e 49 122
e 49 125
e 49 135
e 49 143
e 49 144
e 49 146
e 49 147
e 49 151
e 49 153
e 49 159
e 49 165
e 49 175
e 49 177
e 49 178
e 49 187
e 49 189
e 49 191
e 49 193
e 49 194
e 49 195
e 50 51
e 50 54
e 50 55
e 50 59
e 50 63
e 50 65
e 50 68
e 50 73
e 50 78
e 50 79
e 50 85
e 50 87
e 50 95
e 50 102
e 50 110
e 50 111
e 50 132
e 50 141
e 50 145
e 50 146
e 50 156
e 50 162
e 50 164
e 50 165
e 50 179
e 50 184
e 50 192
e 50 198
e 51 52
e 51 54
e 51 56
e 51 57
e 51 60
e 51 67
e 51 69
e 51 72
e 51 74
e 51 78
e 51 97
e 51 98
e 51 110
e 51 113
e 51 116
e 51 128
e 51 134
e 51 135
e 51 143
e 51 150
e 51 156
e 51 157
e 51 161
e 51 167
e 51 169
e 51 171
e 51 177
e 51 183
e 51 193
e 51 197
e 51 198
e 52 53
e 52 69
e 52 71
e 52 75
e 52 80
e 52 93
e 52 102
e 52 107
e 52 111
e 52 114
e 52 119
e 52 126
e 52 127
e 52 130
e 52 142
e 52 150
e 52 152
e 52 155
e 52 160
e 52 162
e 52 166
e 52 174
e 52 176
e 52 182
e 52 187
e 52 190
e 52 196
e 52 197
e 53 54
e 53 64
e 53 68
e 53 85
e 53 96
e 53 98
e 53 102
e 53 108
e 53 109
e 53 114
e 53 118
e 53 119
e 53 120
e 53 123
e 53 126
e 53 133
e 53 134
e 53 135
e 53 138
e 53 147
e 53 151
e 53 152
e 53 161
e 53 164
e 53 165
e 53 166
e 53 175
e 53 177
e 53 182
e 53 188
e 54 55
e 54 58
e 54 63
e 54 65
e 54 69
e 54 75
e 54 77
e 54 80
e 54 83
e 54 84
e 54 87
e 54 88
e 54 89
e 54 99
e 54 107
e 54 123
e 54 124
e 54 139
e 54 141
e 54 155
e 54 158
e 54 169
e 54 171
e 54 176
e 54 198
e 55 56
e 55 63
e 55 65
e 55 71
e 55 74
e 55 82
e 55 86
e 55 92
e 55 93
e 55 94
e 55 96
e 55 102
e 55 107
e 55 111
e 55 116
e 55 119
e 55 121
e 55 123
e 55 129
e 55 130
e 55 149
e 55 155
e 55 161
e 55 163
e 55 167
e 55 173
e 55 175
e 55 181
e 55 183
e 55 189
e 55 191
e 55 195
e 56 57
e 56 64
e 56 69
e 56 77
e 56 88
e 56 97
e 56 113
e 56 117
e 56 122
e 56 124
e 56 125
e 56 126
e 56 138
e 56 141
e 56 157
e 56 160
e 56 172
e 56 179
e 56 180
e 56 183
e 56 197
e 56 198
e 57 58
e 57 63
e 57 79
e 57 87
e 57 88
e 57 94
e 57 106
e 57 112
e 57 115
e 57 124
e 57 126
e 57 128
e 57 129
e 57 133
e 57 135
e 57 138
e 57 147
e 57 154
e 57 155
e 57 158
e 57 169
e 57 172
e 57 174
e 57 183
e 57 186
e 57 187
e 57 195
e 57 199
e 58 59
e 58 64
e 58 69
e 58 71
e 58 81
e 58 87
e 58 89
e 58 91
e 58 102
e 58 109
e 58 111
e 58 113
e 58 118
e 58 120
e 58 121
e 58 124
e 58 127
e 58 128
e 58 129
e 58 130
e 58 133
e 58 136
e 58 138
e 58 147
e 58 154
e 58 160
e 58 162
e 58 163
e 58 170
e 58 177
e 58 178
e 58 182
e 58 188
e 58 197
e 59 60
e 59 63
e 59 65
e 59 67
e 59 69
e 59 73
e 59 85
e 59 88
e 59 112
e 59 116
e 59 118
e 59 124
e 59 127
e 59 128
e 59 130
e 59 131
e 59 132
e 59 134
e 59 136
e 59 137
e 59 138
e 59 139
e 59 141
e 59 144
e 59 147
e 59 150
e 59 159
e 59 169
e 59 172
e 59 174
e 59 178
e 59 180
e 59 181
e 59 183
e 59 188
e 60 61
e 60 66
e 60 76
e 60 104
e 60 106
e 60 119
e 60 121
e 60 122
e 60 123
e 60 124
e 60 136
e 60 146
e 60 148
e 60 153
e 60 156
e 60 159
e 60 163
e 60 164
e 60 166
e 60 168
e 60 174
e 60 183
e 60 190
e 60 194
e 61 62
e 61 63
e 61 65
e 61 73
e 61 78
e 61 84
e 61 89
e 61 93
e 61 101
e 61 107
e 61 108
e 61 110
e 61 113
e 61 115
e 61 116
e 61 118
e 61 120
e 61 122
e 61 128
e 61 132
e 61 134
e 61 137
e 61 139
e 61 143
e 61 153
e 61 155
e 61 156
e 61 157
e 61 161
e 61 162
e 61 167
e 61 169
e 61 170
e 61 172
e 61 175
e 61 178
e 61 179
e 61 180
e 61 183
e 61 195
e 61 197
e 61 199
e 62 63
e 62 69
e 62 71
e 62 73
e 62 77
e 62 87
e 62 91
e 62 102
e 62 104
e 62 123
e 62 126
e 62 127
e 62 136
e 62 137
e 62 142
e 62 155
e 62 160
e 62 161
e 62 162
e 62 168
e 62 173
e 62 178
e 62 180
e 62 182
e 62 187
e 62 191
e 62 192
e 63 64
e 63 68
e 63 78
e 63 88
e 63 92
e 63 98
e 63 99
e 63 108
e 63 114
e 63 118
e 63 130
e 63 134
e 63 138
e 63 143
e 63 147
e 63 152
e 63 156
e 63 162
e 63 164
e 63 184
e 63 187
e 63 189
e 63 194
e 64 65
e 64 80
e 64 83
e 64 86
e 64 97
e 64 98
e 64 104
e 64 110
e 64 116
e 64 124
e 64 127
e 64 128
e 64 131
e 64 142
e 64 149
e 64 160
e 64 162
e 64 176
e 64 178
e 64 181
e 64 184
e 64 192
e 64 196
e 64 199
e 65 66
e 65 75
e 65 76
e 65 81
e 65 87
e 65 94
e 65 95
e 65 105
e 65 110
e 65 116
e 65 131
e 65 136
e 65 138
e 65 140
e 65 141
e 65 147
e 65 154
e 65 155
e 65 158
e 65 167
e 65 170
e 65 176
e 65 179
e 65 182
e 65 188
e 65 197
e 66 67
e 66 72
e 66 76
e 66 82
e 66 84
e 66 92
e 66 102
e 66 106
e 66 109
e 66 110
e 66 114
e 66 122
e 66 132
e 66 143
e 66 148
e 66 151
e 66 155
e 66 158
e 66 163
e 66 171
e 66 175
e 66 177
e 66 179
e 66 185
e 66 186
e 66 191
e 66 193
e 67 68
e 67 72
e 67 77
e 67 98
e 67 104
e 67 109
e 67 112
e 67 116
e 67 118
e 67 121
e 67 130
e 67 144
e 67 149
e 67 156
e 67 162
e 67 165
e 67 171
e 67 175
e 67 183
e 67 185
e 68 69
e 68 78
e 68 84
e 68 94
e 68 103
e 68 106
e 68 116
e 68 122
e 68 126
e 68 128
e 68 131
e 68 136
e 68 137
e 68 142
e 68 147
e 68 149
e 68 161
e 68 171
e 68 173
e 68 183
e 68 192
e 68 195
e 68 199
e 69 70
e 69 82
e 69 84
e 69 94
e 69 97
e 69 98
e 69 102
e 69 106
e 69 114
e 69 121
e 69 124
e 69 133
e 69 134
e 69 140
e 69 143
e 69 148
e 69 153
e 69 155
e 69 164
e 69 170
e 69 171
e 69 185
e 69 189
e 69 195
e 70 71
e 70 80
e 70 88
e 70 92
e 70 94
e 70 95
e 70 104
e 70 119
e 70 120
e 70 126
e 70 130
e 70 136
e 70 140
e 70 147
e 70 162
e 70 171
e 70 174
e 70 177
e 70 188
e 70 190
e 71 72
e 71 81
e 71 84
e 71 94
e 71 108
e 71 113
e 71 117
e 71 124
e 71 126
e 71 127
e 71 133
e 71 135
e 71 136
e 71 144
e 71 151
e 71 152
e 71 155
e 71 158
e 71 159
e 71 160
e 71 161
e 71 164
e 71 166
e 71 170
e 71 177
e 71 185
e 71 199
e 72 73
e 72 76
e 72 84
e 72 91
e 72 93
e 72 94
e 72 95
e 72 98
e 72 102
e 72 106
e 72 113
e 72 121
e 72 124
e 72 127
e 72 129
e 72 134
e 72 135
e 72 144
e 72 145
e 72 146
e 72 151
e 72 153
e 72 155
e 72 159
e 72 163
e 72 164
e 72 165
e 72 167
e 72 171
e 72 180
e 72 185
e 72 186
e 72 196
e 73 74
e 73 78
e 73 80
e 73 81
e 73 96
e 73 97
e 73 100
e 73 101
e 73 116
e 73 120
e 73 122
e 73 127
e 73 134
e 73 135
e 73 143
e 73 144
e 73 148
e 73 151
e 73 166
e 73 171
e 73 173
e 73 176
e 73 178
e 73 180
e 73 181
e 73 191
e 73 196
e 73 197
e 74 75
e 74 88
e 74 96
e 74 99
e 74 103
e 74 107
e 74 115
e 74 117
e 74 122
e 74 132
e 74 153
e 74 157
e 74 160
e 74 186
e 74 189
e 74 194
e 74 196
e 74 200
e 75 76
e 75 78
e 75 79
e 75 86
e 75 87
e 75 104
e 75 105
e 75 109
e 75 111
e 75 112
e 75 128
e 75 132
e 75 140
e 75 152
e 75 160
e 75 167
e 75 174
e 75 180
e 75 189
e 75 198
e 75 199
e 76 77
e 76 88
e 76 90
e 76 97
e 76 98
e 76 105
e 76 108
e 76 116
e 76 117
e 76 118
e 76 120
e 76 130
e 76 135
e 76 137
e 76 143
e 76 148
e 76 149
e 76 154
e 76 161
e 76 163
e 76 168
e 76 190
e 76 192
e 76 193
e 77 78
e 77 79
e 77 87
e 77 96
e 77 105
e 77 108
e 77 111
e 77 113
e 77 114
e 77 117
e 77 130
e 77 136
e 77 141
e 77 143
e 77 145
e 77 151
e 77 152
e 77 155
e 77 160
e 77 164
e 77 172
e 77 174
e 77 177
e 77 182
e 77 185
e 77 186
e 77 190
e 77 192
e 78 79
e 78 82
e 78 90
e 78 96
e 78 107
e 78 120
e 78 123
e 78 127
e 78 133
e 78 134
e 78 140
e 78 146
e 78 150
e 78 156
e 78 160
e 78 161
e 78 162
e 78 173
e 78 195
e 79 80
e 79 81
e 79 85
e 79 90
e 79 96
e 79 99
e 79 104
e 79 112
e 79 121
e 79 123
e 79 128
e 79 135
e 79 141
e 79 156
e 79 162
e 79 163
e 79 171
e 79 174
e 79 180
e 79 183
e 79 188
e 79 200
e 80 81
e 80 99
e 80 105
e 80 109
e 80 110
e 80 111
e 80 112
e 80 119
e 80 120
e 80 121
e 80 129
e 80 137
e 80 138
e 80 140
e 80 143
e 80 144
e 80 145
e 80 148
e 80 166
e 80 169
e 80 175
e 80 176
e 80 178
e 80 191
e 80 199
e 81 82
e 81 93
e 81 99
e 81 102
e 81 111
e 81 115
e 81 129
e 81 132
e 81 137
e 81 151
e 81 169
e 81 171
e 81 172
e 81 176
e 81 180
e 81 181
e 81 191
e 82 83
e 82 85
e 82 93
e 82 96
e 82 104
e 82 105
e 82 106
e 82 111
e 82 113
e 82 121
e 82 126
e 82 127
e 82 128
e 82 131
e 82 142
e 82 149
e 82 151
e 82 161
e 82 163
e 82 164
e 82 170
e 82 172
e 82 174
e 82 179
e 82 180
e 82 183
e 82 184
e 82 187
e 82 188
e 82 197
e 82 199
e 83 84
e 83 87
e 83 88
e 83 89
e 83 105
e 83 108
e 83 110
e 83 115
e 83 118
e 83 121
e 83 129
e 83 130
e 83 131
e 83 135
e 83 147
e 83 150
e 83 153
e 83 168
e 83 179
e 83 183
e 83 186
e 83 193
e 83 195
e 83 198
e 83 199
e 84 85
e 84 87
e 84 88
e 84 89
e 84 93
e 84 98
e 84 99
e 84 100
e 84 104
e 84 110
e 84 114
e 84 119
e 84 126
e 84 128
e 84 135
e 84 136
e 84 141
e 84 143
e 84 153
e 84 155
e 84 163
e 84 164
e 84 165
e 84 179
e 84 182
e 85 86
e 85 92
e 85 98
e 85 99
e 85 109
e 85 111
e 85 123
e 85 126
e 85 128
e 85 129
e 85 132
e 85 144
e 85 147
e 85 149
e 85 163
e 85 166
e 85 180
e 86 87
e 86 88
e 86 93
e 86 96
e 86 98
e 86 101
e 86 106
e 86 116
e 86 124
e 86 129
e 86 132
e 86 134
e 86 140
e 86 144
e 86 148
e 86 150
e 86 151
e 86 158
e 86 159
e 86 164
e 86 166
e 86 174
e 86 175
e 86 186
e 86 189
e 86 194
e 86 197
e 87 88
e 87 95
e 87 96
e 87 99
e 87 102
e 87 103
e 87 108
e 87 110
e 87 116
e 87 120
e 87 126
e 87 127
e 87 129
e 87 130
e 87 131
e 87 134
e 87 145
e 87 147
e 87 160
e 87 164
e 87 174
e 87 176
e 87 178
e 87 190
e 88 89
e 88 91
e 88 105
e 88 109
e 88 111
e 88 113
e 88 117
e 88 128
e 88 130
e 88 150
e 88 151
e 88 153
e 88 167
e 88 168
e 88 170
e 88 173
e 88 174
e 88 179
e 88 183
e 89 90
e 89 91
e 89 96
e 89 109
e 89 115
e 89 117
e 89 118
e 89 119
e 89 121
e 89 122
e 89 123
e 89 125
e 89 127
e 89 130
e 89 139
e 89 146
e 89 150
e 89 153
e 89 158
e 89 171
e 89 179
e 89 182
e 89 184
e 89 185
e 89 194
e 89 198
e 90 91
e 90 102
e 90 105
e 90 110
e 90 111
e 90 116
e 90 123
e 90 130
e 90 138
e 90 140
e 90 144
e 90 145
e 90 153
e 90 165
e 90 186
e 90 192
e 90 197
e 91 92
e 91 112
e 91 117
e 91 120
e 91 124
e 91 138
e 91 164
e 91 166
e 91 167
e 91 169
e 91 175
e 91 179
e 91 182
e 91 199
e 91 200
e 92 93
e 92 108
e 92 112
e 92 114
e 92 119
e 92 133
e 92 135
e 92 141
e 92 151
e 92 154
e 92 167
e 92 168
e 92 171
e 92 181
e 92 185
e 92 197
e 92 199
e 93 94
e 93 97
e 93 108
e 93 110
e 93 112
e 93 113
e 93 122
e 93 124
e 93 139
e 93 149
e 93 162
e 93 164
e 93 166
e 93 170
e 93 171
e 93 173
e 93 181
e 93 185
e 93 186
e 93 188
e 93 196
e 94 95
e 94 97
e 94 104
e 94 111
e 94 125
e 94 127
e 94 133
e 94 136
e 94 137
e 94 141
e 94 143
e 94 145
e 94 152
e 94 153
e 94 155
e 94 166
e 94 175
e 94 182
e 94 189
e 95 96
e 95 100
e 95 101
e 95 102
e 95 103
e 95 105
e 95 109
e 95 117
e 95 121
e 95 126
e 95 128
e 95 132
e 95 136
e 95 143
e 95 144
e 95 152
e 95 155
e 95 157
e 95 159
e 95 163
e 95 167
e 95 173
e 95 177
e 95 182
e 95 184
e 95 194
e 95 196
e 96 97
e 96 98
e 96 100
e 96 114
e 96 117
e 96 121
e 96 126
e 96 130
e 96 131
e 96 140
e 96 146
e 96 147
e 96 149
e 96 151
e 96 153
e 96 156
e 96 163
e 96 165
e 96 169
e 96 173
e 96 177
e 96 181
e 96 195
e 96 199
e 97 98
e 97 99
e 97 100
e 97 101
e 97 104
e 97 105
e 97 108
e 97 116
e 97 132
e 97 135
e 97 139
e 97 150
e 97 160
e 97 165
e 97 170
e 97 182
e 97 185
e 97 191
e 98 99
e 98 100
e 98 110
e 98 114
e 98 121
e 98 127
e 98 134
e 98 137
e 98 139
e 98 151
e 98 153
e 98 156
e 98 158
e 98 162
e 98 168
e 98 172
e 98 174
e 98 175
e 98 176
e 98 177
e 98 185
e 98 187
e 98 191
e 99 100
e 99 103
e 99 106
e 99 116
e 99 119
e 99 131
e 99 137
e 99 144
e 99 156
e 99 157
e 99 159
e 99 165
e 99 166
e 99 177
e 99 180
e 99 187
e 99 190
e 99 192
e 99 199
e 99 200
e 100 101
e 100 103
e 100 104
e 100 110
e 100 120
e 100 132
e 100 136
e 100 137
e 100 142
e 100 144
e 100 151
e 100 153
e 100 167
e 100 171
e 100 172
e 100 175
e 100 178
e 100 182
e 100 183
e 100 189
e 100 193
e 100 196
e 101 102
e 101 104
e 101 105
e 101 108
e 101 109
e 101 115
e 101 116
e 101 131
e 101 132
e 101 134
e 101 143
e 101 147
e 101 148
e 101 150
e 101 154
e 101 159
e 101 160
e 101 162
e 101 163
e 101 168
e 101 176
e 101 177
e 101 178
e 101 186
e 101 191
e 101 193
e 101 195
e 102 103
e 102 106
e 102 123
e 102 124
e 102 126
e 102 133
e 102 136
e 102 138
e 102 148
e 102 154
e 102 169
e 102 179
e 102 180
e 102 181
e 102 184
e 102 196
e 102 197
e 103 104
e 103 120
e 103 125
e 103 128
e 103 138
e 103 142
e 103 143
e 103 144
e 103 148
e 103 152
e 103 154
e 103 156
e 103 157
e 103 160
e 103 167
e 103 172
e 103 173
e 103 174
e 103 175
e 103 178
e 103 185
e 103 186
e 103 193
e 104 105
e 104 112
e 104 113
e 104 115
e 104 116
e 104 118
e 104 124
e 104 126
e 104 129
e 104 131
e 104 138
e 104 146
e 104 152
e 104 153
e 104 155
e 104 158
e 104 163
e 104 171
e 104 173
e 104 175
e 104 190
e 104 191
e 104 193
e 104 198
e 104 199
e 105 106
e 105 109
e 105 111
e 105 117
e 105 132
e 105 139
e 105 141
e 105 147
e 105 148
e 105 157
e 105 161
e 105 165
e 105 169
e 105 176
e 105 179
e 105 182
e 105 185
e 105 186
e 105 192
e 105 196
e 105 198
e 106 107
e 106 112
e 106 126
e 106 135
e 106 137
e 106 146
e 106 159
e 106 161
e 106 164
e 106 173
e 106 182
e 106 183
e 106 186
e 106 187
e 106 190
e 107 108
e 107 111
e 107 116
e 107 118
e 107 130
e 107 136
e 107 137
e 107 143
e 107 151
e 107 153
e 107 159
e 107 161
e 107 163
e 107 165
e 107 178
e 107 185
e 107 188
e 107 190
e 107 191
e 107 192
e 107 194
e 108 109
e 108 111
e 108 124
e 108 145
e 108 155
e 108 158
e 108 160
e 108 167
e 108 169
e 108 170
e 108 174
e 108 179
e 108 180
e 108 182
e 108 183
e 108 184
e 108 186
e 108 194
e 109 110
e 109 112
e 109 119
e 109 120
e 109 134
e 109 139
e 109 142
e 109 146
e 109 153
e 109 156
e 109 157
e 109 169
e 109 170
e 109 174
e 109 176
e 109 185
e 109 187
e 109 188
e 109 191
e 109 193
e 109 194
e 109 197
e 109 198
e 110 111
e 110 112
e 110 114
e 110 116
e 110 124
e 110 125
e 110 134
e 110 143
e 110 150
e 110 152
e 110 158
e 110 167
e 110 176
e 110 192
e 110 193
e 110 194
e 110 196
e 110 197
e 111 112
e 111 113
e 111 115
e 111 117
e 111 121
e 111 131
e 111 142
e 111 145
e 111 149
e 111 150
e 111 157
e 111 160
e 111 174
e 111 175
e 111 177
e 111 179
e 111 182
e 111 193
e 111 197
e 112 113
e 112 114
e 112 126
e 112 127
e 112 130
e 112 133
e 112 144
e 112 151
e 112 153
e 112 156
e 112 162
e 112 184
e 112 186
e 112 190
e 112 198
e 113 114
e 113 117
e 113 123
e 113 129
e 113 138
e 113 139
e 113 140
e 113 141
e 113 144
e 113 148
e 113 149
e 113 152
e 113 156
e 113 160
e 113 164
e 113 165
e 113 166
e 113 177
e 113 181
e 113 187
e 114 115
e 114 118
e 114 119
e 114 123
e 114 134
e 114 135
e 114 138
e 114 141
e 114 155
e 114 161
e 114 164
e 114 165
e 114 172
e 114 176
e 114 181
e 114 189
e 114 192
e 114 198
e 115 116
e 115 118
e 115 119
e 115 126
e 115 138
e 115 140
e 115 143
e 115 149
e 115 156
e 115 160
e 115 162
e 115 164
e 115 166
e 115 174
e 115 177
e 115 181
e 115 188
e 115 192
e 116 117
e 116 124
e 116 130
e 116 132
e 116 144
e 116 152
e 116 155
e 116 159
e 116 164
e 116 167
e 116 170
e 116 172
e 116 183
e 116 185
e 116 194
e 117 118
e 117 119
e 117 126
e 117 131
e 117 133
e 117 149
e 117 160
e 117 172
e 117 176
e 117 186
e 117 195
e 117 196
e 118 119
e 118 122
e 118 133
e 118 134
e 118 135
e 118 137
e 118 142
e 118 143
e 118 148
e 118 150
e 118 162
e 118 167
e 118 169
e 118 185
e 118 187
e 118 189
e 118 191
e 119 120
e 119 121
e 119 131
e 119 137
e 119 138
e 119 145
e 119 157
e 119 162
e 119 167
e 119 172
e 119 186
e 119 188
e 119 197
e 119 199
e 120 121
e 120 122
e 120 126
e 120 132
e 120 144
e 120 146
e 120 148
e 120 163
e 120 167
e 120 171
e 120 172
e 120 174
e 120 181
e 120 185
e 120 197
e 120 199
e 121 122
e 121 155
e 121 162
e 121 164
e 121 166
e 121 177
e 121 181
e 121 186
e 121 187
e 121 191
e 121 195
e 121 196
e 121 197
e 122 123
e 122 124
e 122 128
e 122 130
e 122 133
e 122 138
e 122 149
e 122 154
e 122 159
e 122 172
e 122 180
e 122 184
e 122 185
e 122 186
e 122 191
e 122 192
e 122 195
e 123 124
e 123 126
e 123 145
e 123 147
e 123 151
e 123 152
e 123 158
e 123 161
e 123 164
e 123 167
e 123 170
e 123 173
e 123 174
e 123 183
e 123 184
e 124 125
e 124 126
e 124 128
e 124 129
e 124 134
e 124 136
e 124 140
e 124 169
e 124 176
e 124 178
e 124 183
e 124 188
e 124 194
e 125 126
e 125 128
e 125 135
e 125 147
e 125 148
e 125 152
e 125 155
e 125 157
e 125 162
e 125 164
e 125 165
e 125 166
e 125 174
e 125 176
e 125 178
e 125 183
e 125 197
e 126 127
e 126 128
e 126 133
e 126 134
e 126 135
e 126 143
e 126 146
e 126 154
e 126 158
e 126 160
e 126 162
e 126 163
e 126 169
e 126 175
e 126 177
e 126 184
e 126 185
e 126 188
e 126 189
e 126 190
e 126 194
e 126 198
e 126 199
e 127 128
e 127 136
e 127 141
e 127 143
e 127 149
e 127 171
e 127 172
e 127 179
e 127 184
e 127 186
e 127 187
e 127 191
e 127 200
e 128 129
e 128 131
e 128 134
e 128 136
e 128 137
e 128 141
e 128 143
e 128 152
e 128 163
e 128 168
e 128 176
e 128 181
e 128 188
e 128 191
e 128 195
e 129 130
e 129 153
e 129 155
e 129 158
e 129 161
e 129 164
e 129 177
e 129 185
e 129 186
e 129 192
e 129 197
e 129 198
e 130 131
e 130 132
e 130 133
e 130 143
e 130 147
e 130 157
e 130 179
e 130 184
e 130 189
e 130 194
e 130 196
e 131 132
e 131 134
e 131 139
e 131 141
e 131 142
e 131 161
e 131 165
e 131 169
e 131 170
e 131 171
e 131 176
e 131 181
e 131 183
e 131 189
e 131 190
e 131 192
e 131 200
e 132 133
e 132 149
e 132 151
e 132 153
e 132 157
e 132 161
e 132 163
e 132 167
e 132 171
e 132 177
e 132 200
e 133 134
e 133 139
e 133 142
e 133 148
e 133 150
e 133 153
e 133 159
e 133 160
e 133 161
e 133 163
e 133 164
e 133 178
e 133 181
e 133 188
e 133 189
e 133 190
e 133 193
e 133 195
e 133 198
e 133 200
e 134 135
e 134 140
e 134 153
e 134 154
e 134 164
e 134 167
e 134 175
e 134 179
e 134 197
e 134 199
e 135 136
e 135 138
e 135 141
e 135 147
e 135 152
e 135 154
e 135 157
e 135 167
e 135 169
e 135 171
e 135 173
e 135 182
e 135 185
e 135 186
e 135 195
e 135 197
e 136 137
e 136 145
e 136 146
e 136 148
e 136 150
e 136 156
e 136 173
e 136 180
e 136 184
e 136 187
e 136 189
e 136 197
e 136 199
e 137 138
e 137 139
e 137 147
e 137 152
e 137 159
e 137 167
e 137 171
e 137 176
e 137 179
e 137 181
e 137 184
e 137 185
e 137 187
e 137 189
e 137 190
e 137 191
e 137 196
e 137 200
e 138 139
e 138 147
e 138 148
e 138 163
e 138 168
e 138 171
e 138 172
e 138 175
e 138 197
e 139 140
e 139 143
e 139 159
e 139 162
e 139 165
e 139 169
e 139 170
e 139 173
e 139 179
e 139 182
e 139 189
e 139 191
e 139 194
e 139 197
e 140 141
e 140 144
e 140 149
e 140 152
e 140 153
e 140 154
e 140 169
e 140 175
e 140 178
e 140 180
e 140 195
e 140 198
e 141 142
e 141 153
e 141 164
e 141 169
e 141 171
e 141 178
e 141 179
e 141 181
e 141 193
e 141 194
e 142 143
e 142 153
e 142 162
e 142 164
e 142 167
e 142 170
e 142 171
e 142 172
e 142 178
e 142 195
e 142 200
e 143 144
e 143 147
e 143 149
e 143 159
e 143 164
e 143 168
e 143 172
e 143 173
e 143 174
e 143 176
e 143 183
e 143 190
e 143 197
e 143 200
e 144 145
e 144 148
e 144 163
e 144 173
e 144 178
e 144 192
e 144 194
e 144 200
e 145 146
e 145 152
e 145 154
e 145 156
e 145 192
e 145 198
e 146 147
e 146 148
e 146 152
e 146 164
e 146 166
e 146 170
e 146 173
e 146 175
e 146 178
e 146 179
e 146 186
e 146 192
e 147 148
e 147 149
e 147 156
e 147 157
e 147 161
e 147 167
e 147 169
e 147 171
e 147 178
e 147 182
e 147 183
e 147 199
e 148 149
e 148 161
e 148 172
e 148 187
e 148 191
e 148 194
e 148 198
e 149 150
e 149 153
e 149 174
e 149 184
e 149 191
e 149 198
e 149 199
e 150 151
e 150 164
e 150 167
e 150 168
e 150 170
e 150 179
e 150 184
e 150 188
e 150 191
e 150 193
e 150 198
e 151 152
e 151 157
e 151 158
e 151 161
e 151 164
e 151 166
e 151 167
e 151 170
e 151 182
e 151 185
e 151 188
e 151 198
e 152 153
e 152 159
e 152 160
e 152 162
e 152 164
e 152 165
e 152 166
e 152 171
e 152 176
e 152 179
e 152 181
e 152 197
e 153 154
e 153 161
e 153 179
e 153 186
e 153 193
e 153 197
e 154 155
e 154 156
e 154 162
e 154 170
e 154 182
e 154 183
e 154 193
e 154 195
e 154 196
e 155 156
e 155 159
e 155 163
e 155 168
e 155 173
e 155 176
e 155 181
e 155 186
e 155 187
e 156 157
e 156 175
e 156 176
e 156 177
e 156 181
e 156 183
e 156 189
e 156 191
e 156 196
e 156 199
e 157 158
e 157 162
e 157 169
e 157 174
e 157 175
e 157 178
e 157 183
e 157 197
e 158 159
e 158 162
e 158 163
e 158 170
e 158 185
e 158 195
e 158 197
e 159 160
e 159 168
e 159 173
e 159 175
e 159 177
e 159 179
e 159 180
e 159 182
e 159 197
e 159 198
e 159 199
e 159 200
e 160 161
e 160 163
e 160 164
e 160 176
e 160 178
e 160 182
e 160 184
e 160 197
e 160 199
e 161 162
e 161 167
e 161 175
e 161 191
e 161 193
e 162 163
e 162 172
e 162 177
e 162 179
e 162 184
e 162 188
e 162 194
e 162 195
e 162 198
e 162 199
e 163 164
e 163 167
e 163 168
e 163 169
e 163 171
e 163 172
e 163 173
e 163 180
e 163 198
e 164 165
e 164 167
e 164 168
e 164 174
e 164 175
e 164 186
e 164 199
e 165 166
e 165 168
e 165 173
e 165 180
e 166 167
e 166 172
e 166 173
e 166 179
e 166 188
e 166 199
e 167 168
e 167 180
e 167 182
e 167 195
e 167 197
e 167 200
e 168 169
e 168 170
e 168 174
e 168 175
e 168 176
e 168 181
e 168 185
e 168 191
e 168 193
e 168 194
e 168 196
e 169 170
e 169 174
e 169 177
e 169 179
e 169 180
e 169 193
e 170 171
e 170 185
e 170 192
e 170 197
e 170 198
e 171 172
e 171 184
e 171 186
e 171 190
e 171 195
e 171 196
e 172 173
e 172 177
e 172 178
e 172 179
e 172 180
e 172 192
e 172 197
e 172 198
e 172 199
e 172 200
e 173 174
e 173 184
e 173 195
e 174 175
e 174 182
e 174 185
e 174 186
e 174 195
e 174 197
e 175 176
e 175 177
e 175 179
e 175 185
e 176 177
e 176 178
e 176 186
e 176 191
e 176 192
e 176 194
e 176 196
e 177 178
e 177 180
e 177 182
e 177 184
e 177 187
e 177 191
e 177 193
e 177 200
e 178 179
e 178 180
e 178 197
e 179 180
e 179 190
e 179 193
e 179 199
e 179 200
e 180 181
e 180 194
e 180 198
e 181 182
e 181 189
e 181 190
e 181 191
e 181 194
e 181 198
e 181 199
e 182 183
e 182 197
e 183 184
e 183 188
e 183 195
e 183 196
e 184 185
e 184 188
e 184 190
e 184 193
e 185 186
e 185 187
e 185 192
e 185 193
e 185 196
e 185 197
e 186 187
e 186 191
e 186 192
e 186 194
e 187 188
e 187 195
e 188 189
e 188 197
e 189 190
e 190 191
e 190 194
e 190 198
e 191 192
e 192 193
e 193 194
e 193 195
e 193 198
e 194 195
e 194 197
e 194 199
e 195 196
e 195 197
e 196 197
e 197 198
e 198 199
e 199 200
